$molecule
   0  1
   C     0.670518    0.000000    0.000000
   H     1.241372    0.927754    0.000000
   H     1.241372   -0.927754    0.000000
   C    -0.670518    0.000000    0.000000
   H    -1.241372   -0.927754    0.000000
   H    -1.241372    0.927754    0.000000
C       1.3862000000     0.0000000000    2.5 
C       0.6931000000     1.2004844147    2.5 
C      -0.6931000000     1.2004844147    2.5 
C      -1.3862000000     0.0000000000    2.5 
C      -0.6931000000    -1.2004844147    2.5 
C       0.6931000000    -1.2004844147    2.5 
H       2.4618000000     0.0000000000    2.5 
H       1.2309000000     2.1319813390    2.5 
H      -1.2309000000     2.1319813390    2.5 
H      -2.4618000000     0.0000000000    2.5 
H      -1.2309000000    -2.1319813390    2.5 
H       1.2309000000    -2.1319813390    2.5 
$end

$rem
   basis 		6-31G
   METHOD 			CIS
   CIS_N_ROOTS       10
   CIS_SINGLETS      true
   CIS_TRIPLETS      false
   STS_FCD           true
   STS_FED			 true
   STS_DONOR         1-6
   STS_ACCEPTOR      7-18
   POP_MULLIKEN      -1
   STS_MOM			 true
   CIS_MULLIKEN      2	
$end
	
