$molecule
   0  1
   C     0.670518    0.000000    0.000000
   H     1.241372    0.927754    0.000000
   H     1.241372   -0.927754    0.000000
   C    -0.670518    0.000000    0.000000
   H    -1.241372   -0.927754    0.000000
   H    -1.241372    0.927754    0.000000
   C     0.774635    0.000000    3.500000
   H     1.323105    0.936763    3.500000
   H     1.323105   -0.936763    3.500000
   C    -0.774635    0.000000    3.500000
   H    -1.323105   -0.936763    3.500000
   H    -1.323105    0.936763    3.500000
$end

$rem
   basis 		6-31G
   METHOD 			CIS
   CIS_N_ROOTS       10
   CIS_SINGLETS      true
   CIS_TRIPLETS      false
   STS_FED           true
   STS_DONOR         1-6
   STS_ACCEPTOR      7-12
   POP_MULLIKEN      -1
   STS_MOM			 true
$end
	
